17	4
16	13	17	15	
0	0	0	0	0	3	2	3	4	
9	8	3	4	7	1	17	
2	3	10	7	7	2	6	13	
2	2	8	1	8	3	5	7	9	
10	4	5	9	5	2	8	15	
250	9	4	4	7	3	11	17	17	
175	9	1	5	7	1	17	
150	5	3	5	1	3	10	17	17	
250	7	6	9	2	3	12	17	17	
150	10	9	6	5	2	17	17	
75	7	1	9	8	2	17	17	
250	10	10	6	8	3	14	17	17	
8	1	5	6	5	2	17	17	
3	6	2	3	1	3	16	17	17	
4	9	4	6	6	1	16	
7	8	6	9	5	3	17	17	17	
0	0	0	0	0	0	
